10 4

10 10 20 20 
25 25 30 30
5 5 15 15 
20 20 5 5 
15 15 25 25 
30 30 10 10
20 20 15 15 
35 35 25 25 
10 10 35 35
25 25 20 20

15 15 5 5
10 10 20 20
20 20 30 30
25 25 15 15
30 30 10 10
5 5 25 25
10 10 35 35
15 15 5 5
25 25 20 20
30 30 5 5

0 10 5 0 15 10 20 0 25 10

80 100 70 90 120 110 130 100 150 140